data/solutions/planning/wellformed/moderate/weighting/wellformed_moderate_instance8_cplex.sol
Elapsed time: 0.07
Nodes explored: 809
Nodes left: 0
Relative gap: 0.0
Upper bound: 7287.0
Lower bound: 7287
C[0]=1041.0
C[1]=1041.0
C[2]=1041.0
y[0]=2
y[1]=0
y[2]=2
y[3]=0
y[4]=1
y[5]=0
y[6]=2
y[7]=0
y[8]=2
y[9]=0
y[10]=1
y[11]=1
y[12]=2
y[13]=1
y[14]=2
y[15]=1
y[16]=0
y[17]=0
y[18]=0
y[19]=2
y[20]=1
y[21]=1
y[22]=0
y[23]=0
y[24]=1
y[25]=2
y[26]=0
y[27]=2
y[28]=2
y[29]=0
